CUST NO.,SPOT ID,PARKING TIME_ARRIVE,PARKING TIME_OPEN
0,0,0,0
1,1,0,0
2,2,0,0
3,3,0,0
4,4,0,0
5,5,0,0
6,6,0,0
7,7,0,0
8,8,0,0
9,9,0,0
10,10,0,0
11,11,0,0
12,12,0,0
13,13,0,0
14,14,0,0
1000000,0,0,0
1000001,0,0,0
e0,e0,0,0
e1,e1,0,0
e2,e2,0,0
e3,e3,0,0
e4,e4,0,0
e5,e5,0,0
e6,e6,0,0